Minimize
 obj: - 2 y(0) - 4 y(2) - y(4) + 5 y(6) + 9 y(8) + 3 y(10) + 6 y(11) + 2 y(12)
      + y(14) - 3 y(15) - 8 y(16) + 92 x(0) + 9 y(1) + 8 y(5) - 3 y(7) - 8 y(9)
      - 10 y(17) - 6 y(18) - 8 y(19) - 142 x(1) - 142 x(2) + 2 y(3) + 6 x(3)
      + 30 x(4) - 178 x(5) - 193 x(6) + 7 y(13) + 111 x(7) + 196 x(8)
      + 152 x(9) + 41 x(10) - 86 x(11) + 160 x(12) - 112 x(13) - 126 x(14)
      - 133 x(15) + 166 x(16) + 24 x(17) + 152 x(18) + 142 x(19) 
Subject To
 c1:  18 y(0) + 13 y(2) + 8 y(4) + 16 y(6) + 7 y(8) + 16 y(10) + 9 y(11)
      + 5 y(12) + 20 y(14) + 12 y(15) + 8 y(16) + 13 x(0) <= 94
 c2:  15 y(2) + 11 y(6) + 6 y(11) + 2 y(1) + 3 y(5) + 20 y(7) + 20 y(9)
      + 12 y(17) + 17 y(18) + 12 y(19) + 8 x(1) <= 79
 c3:  15 y(0) + 14 y(6) + 13 y(8) + 9 y(10) + 20 y(14) + 14 y(15) + 9 y(16)
      + 7 y(1) + 8 y(7) - y(9) + 12 y(17) + 7 x(2) <= 59
 c4:  18 y(2) + 3 y(6) + 3 y(15) + 20 y(16) + 17 y(1) + 4 y(18) + 20 y(3)
      + 5 x(3) <= 73
 c5:  7 y(6) + 20 y(10) + 20 y(11) + 11 y(12) + 8 y(15) + 16 y(1) + 10 y(7)
      + y(9) + 3 y(17) + 11 y(19) + 19 x(4) <= 84
 c6:  19 y(0) + 18 y(2) + 6 y(8) + 19 y(10) + 15 y(12) + 9 y(14) + 5 y(15)
      + 20 y(16) + y(9) + 11 y(18) + 18 y(19) - x(5) <= 73
 c7:  9 y(0) + 5 y(2) + 15 y(12) + 20 y(15) + 8 y(16) + 8 y(1) + 3 y(3)
      + 20 x(6) <= 53
 c8:  19 y(0) - y(4) + 16 y(10) + 5 y(14) + 15 y(1) + 8 y(5) + 17 y(9)
      + 14 y(17) + 11 y(18) + 6 y(13) + 3 x(7) <= 79
 c9:  14 y(2) + 17 y(6) + 10 y(8) + 18 y(10) + 10 y(12) + 11 y(14) + 6 y(5)
      + 12 y(3) + 7 x(8) <= 66
 c10: 15 y(0) + 17 y(6) + 5 y(11) + 3 y(1) + 14 y(5) + 15 y(9) + 17 y(17)
      + 17 y(13) + 6 x(9) <= 100
 c11: 11 y(0) + 10 y(2) + 14 y(12) + y(15) + 17 y(1) + 9 y(7) + 9 y(9)
      + 3 y(19) + 2 y(13) + 16 x(10) <= 71
 c12: 11 y(2) + 3 y(11) + 9 y(12) - y(14) + 16 y(18) + 9 y(19) + 9 x(11) <= 56
 c13: 18 y(0) + 19 y(4) + 13 y(10) + 7 y(12) + 7 y(16) + 4 y(1) + y(9) + y(18)
      + x(12) <= 56
 c14: 4 y(0) + 4 y(8) + 20 y(11) + 16 y(16) + 14 y(9) + 19 x(13) <= 95
 c15: 14 y(0) - y(6) + 9 y(8) + 16 y(12) + 16 y(15) + y(5) + 19 y(7) + 17 y(9)
      + 7 y(17) + 17 y(18) + 5 y(3) + 5 y(13) + 11 x(14) <= 59
 c16: 3 y(0) + 19 y(4) + y(6) + 14 y(8) + 14 y(11) + 4 y(1) + 19 y(17) - y(13)
      + 18 x(15) <= 75
 c17: 11 y(8) + 12 y(10) + 19 y(11) + 19 y(12) + 20 y(15) + 4 y(1) + 20 y(9)
      + 16 y(17) + 20 y(18) + 13 y(19) + 15 y(3) + 3 x(16) <= 55
 c18: 10 y(2) + 13 y(4) + 8 y(8) + 8 y(14) + 6 y(16) + 13 y(1) + 11 y(5)
      + 5 y(9) - y(17) + 12 x(17) <= 75
 c19: 17 y(6) + 11 y(8) + 20 y(14) + 9 y(3) + 4 y(13) + 2 x(18) <= 88
 c20: 20 y(6) + 15 y(11) + y(14) + 2 y(15) + 15 y(16) + 13 y(1) + 16 y(5)
      + 5 y(3) + 4 x(19) <= 85
 c21: 8 y(0) + 4 y(2) + 20 y(8) + 15 y(10) + 7 y(15) + 14 y(16) + 12 y(1)
      + 7 y(17) + 6 y(18) + 16 y(3) <= 84
 c22: 15 y(0) - y(6) + 3 y(12) + 20 y(15) + 15 y(9) + 16 y(18) + 16 y(3)
      + 5 y(13) <= 81
 c23: 6 y(2) + y(6) + 16 y(8) + 16 y(10) + 10 y(11) - y(12) - y(1) + 10 y(7)
      + 3 y(9) + 5 y(17) + 4 y(3) + 8 y(13) <= 57
 c24: 6 y(6) + 9 y(8) + 10 y(11) + 10 y(15) + 2 y(16) + 9 y(7) + 8 y(19)
      + 7 y(3) <= 63
 c25: 12 y(2) + 7 y(4) + 11 y(10) + 18 y(15) + 5 y(16) + 16 y(1) + 14 y(7)
      + 5 y(9) - y(18) + 13 y(19) + y(13) <= 100
 c26: 17 y(0) + 13 y(6) + 14 y(12) + 10 y(1) + 2 y(5) + 20 y(7) + 19 y(17)
      + 4 y(18) + 13 y(19) + 14 y(3) <= 90
 c27: 6 y(10) + 16 y(14) + 4 y(1) + 8 y(9) <= 50
 c28: y(2) + 8 y(11) + 14 y(14) + 5 y(5) + 8 y(9) - y(17) + 20 y(18) + 14 y(19)
      + 16 y(3) + 13 y(13) <= 89
 c29: 14 y(0) + 18 y(2) + 6 y(4) + 18 y(15) + 2 y(1) + 5 y(5) + 18 y(7)
      + 14 y(18) <= 84
 c30: 3 y(2) + 17 y(4) + 4 y(12) + 19 y(16) + 10 y(7) + 7 y(9) + 8 y(17) <= 76
 c31: 3 y(4) + y(6) + 2 y(10) + 8 y(12) + 3 y(14) + 4 y(15) + 6 y(5) + 6 y(7)
      + 7 y(9) + 13 y(17) + 14 y(18) + 15 y(19) + y(3) <= 79
 c32: 19 y(16) + 2 y(1) + 9 y(7) + 6 y(9) + 4 y(17) + 18 y(18) + 6 y(3) - y(13)
      <= 77
 c33: 19 y(4) + 2 y(10) + 7 y(11) + 4 y(14) + 4 y(15) + 8 y(5) + 18 y(7)
      + 15 y(18) - y(19) + 8 y(3) <= 79
 c34: 18 y(0) + 11 y(4) + 4 y(11) + 9 y(16) + 6 y(1) + 3 y(5) + 13 y(7)
      + 7 y(18) + 14 y(3) <= 88
 c35: 11 y(4) + 5 y(10) + 16 y(11) + 6 y(15) + y(16) + 15 y(5) + 2 y(7) <= 100
 c36: 2 y(0) - y(16) + 16 y(1) + 10 y(5) + 17 y(9) + y(17) <= 87
 c37: - y(0) + 12 y(2) + 16 y(4) + 12 y(10) + 12 y(11) + 10 y(14) + 4 y(15)
      + 8 y(16) + 2 y(1) + 8 y(7) + 11 y(9) + 7 y(17) - y(13) <= 60
 c38: 19 y(6) + 3 y(8) + 19 y(11) + 3 y(16) + 4 y(1) + 3 y(5) + 14 y(7)
      + 20 y(9) + 4 y(3) + 12 y(13) <= 78
 c39: y(2) - y(6) + 2 y(12) + 11 y(15) + 4 y(17) + y(18) <= 66
 c40: x(0) + x(1) + x(2) + x(3) + x(4) + x(5) + x(6) + x(7) + x(8) + x(9)
      + x(10) + x(11) + x(12) + x(13) + x(14) + x(15) + x(16) + x(17) + x(18)
      + x(19) <= 6
 c41: 9 y(0) - y(2) + 2 y(4) + y(6) + 3 y(8) + 2 y(10) - 9 y(11) + 2 y(12)
      + 4 y(14) - 7 y(15) + 8 y(16) - 170 x(0) - 3 y(1) + 6 y(5) - 8 y(7)
      + 3 y(9) + y(17) + 3 y(18) + 6 y(19) - 99 x(1) + 34 x(2) + 5 y(3)
      - 62 x(3) + 195 x(4) - 38 x(5) + 53 x(6) + 10 y(13) - 128 x(7) + 33 x(8)
      + 134 x(9) - 129 x(10) - 75 x(11) + 193 x(12) - 70 x(13) + 132 x(14)
      + 23 x(15) - 47 x(16) + 139 x(17) - 66 x(18) - 124 x(19) = 0
Bounds
 0 <= x(0) <= 1
 0 <= x(1) <= 1
 0 <= x(2) <= 1
 0 <= x(3) <= 1
 0 <= x(4) <= 1
 0 <= x(5) <= 1
 0 <= x(6) <= 1
 0 <= x(7) <= 1
 0 <= x(8) <= 1
 0 <= x(9) <= 1
 0 <= x(10) <= 1
 0 <= x(11) <= 1
 0 <= x(12) <= 1
 0 <= x(13) <= 1
 0 <= x(14) <= 1
 0 <= x(15) <= 1
 0 <= x(16) <= 1
 0 <= x(17) <= 1
 0 <= x(18) <= 1
 0 <= x(19) <= 1
Binaries
 x(0)  x(1)  x(2)  x(3)  x(4)  x(5)  x(6)  x(7)  x(8)  x(9)  x(10)  x(11) 
 x(12)  x(13)  x(14)  x(15)  x(16)  x(17)  x(18)  x(19) 
End
